p cnf 247 1125
c p weight 102 0 0
c p weight -102 1 0
c p weight 103 1 0
c p weight -103 1 0
c p weight 244 -1 0
c p weight -244 1 0
c p weight 247 0.5 0
247 0
-97 0
-95 0
-93 0
-91 0
-89 0
-87 0
-85 0
-83 0
-81 0
-79 0
-77 0
-75 0
-73 0
-71 0
-69 0
-67 0
-65 0
-63 0
-61 0
-59 0
-57 0
-55 0
-53 0
-51 0
-49 0
-47 0
-45 0
-43 0
-41 0
-39 0
-37 0
-35 0
-33 0
-31 0
-29 0
-27 0
-25 0
-23 0
-21 0
-19 0
-17 0
-15 0
-13 0
-11 0
-9 0
-7 0
-5 0
-3 0
-1 0
98 -97 95 0
98 -97 96 0
-98 97 95 0
-98 97 96 0
98 97 -95 -96 0
-98 -97 -95 -96 0
99 95 -96 0
99 -95 96 0
-99 95 96 0
-99 -95 -96 0
100 101 -98 0
100 -98 99 0
-100 101 98 0
-100 98 99 0
100 -98 -95 0
-100 98 -95 0
100 -101 98 95 -99 0
-100 -101 -98 95 -99 0
101 -95 99 0
-101 95 99 0
-102 99 0
101 -102 -95 0
-101 -102 95 0
101 102 95 -99 0
-101 102 -95 -99 0
-103 99 0
101 -103 95 0
-101 -103 -95 0
101 103 -95 -99 0
-101 103 95 -99 0
104 -100 101 0
104 -100 99 0
-104 100 101 0
-104 100 99 0
104 100 -101 -99 0
-104 -100 -101 -99 0
105 101 -99 0
105 -101 99 0
-105 101 99 0
-105 -101 -99 0
106 -104 101 0
106 -104 94 0
-106 104 101 0
-106 104 94 0
106 -104 93 -105 0
106 -104 -93 105 0
-106 104 93 -105 0
-106 104 -93 105 0
106 104 -101 93 105 -94 0
106 104 -101 -93 -105 -94 0
-106 -104 -101 93 105 -94 0
-106 -104 -101 -93 -105 -94 0
108 101 -93 0
108 -101 93 0
-108 101 93 0
-108 -101 -93 0
107 105 -94 0
107 -105 94 0
-107 105 94 0
-107 -105 -94 0
109 -106 108 0
109 -106 92 0
-109 106 108 0
-109 106 92 0
109 -106 91 -94 0
109 -106 -91 94 0
-109 106 91 -94 0
-109 106 -91 94 0
109 106 -108 91 94 -92 0
109 106 -108 -91 -94 -92 0
-109 -106 -108 91 94 -92 0
-109 -106 -108 -91 -94 -92 0
111 108 -91 0
111 -108 91 0
-111 108 91 0
-111 -108 -91 0
110 94 -92 0
110 -94 92 0
-110 94 92 0
-110 -94 -92 0
112 -109 111 0
112 -109 90 0
-112 109 111 0
-112 109 90 0
112 -109 89 -92 0
112 -109 -89 92 0
-112 109 89 -92 0
-112 109 -89 92 0
112 109 -111 89 92 -90 0
112 109 -111 -89 -92 -90 0
-112 -109 -111 89 92 -90 0
-112 -109 -111 -89 -92 -90 0
114 111 -89 0
114 -111 89 0
-114 111 89 0
-114 -111 -89 0
113 92 -90 0
113 -92 90 0
-113 92 90 0
-113 -92 -90 0
115 -112 114 0
115 -112 88 0
-115 112 114 0
-115 112 88 0
115 -112 87 -90 0
115 -112 -87 90 0
-115 112 87 -90 0
-115 112 -87 90 0
115 112 -114 87 90 -88 0
115 112 -114 -87 -90 -88 0
-115 -112 -114 87 90 -88 0
-115 -112 -114 -87 -90 -88 0
117 114 -87 0
117 -114 87 0
-117 114 87 0
-117 -114 -87 0
116 90 -88 0
116 -90 88 0
-116 90 88 0
-116 -90 -88 0
118 -115 117 0
118 -115 86 0
-118 115 117 0
-118 115 86 0
118 -115 85 -88 0
118 -115 -85 88 0
-118 115 85 -88 0
-118 115 -85 88 0
118 115 -117 85 88 -86 0
118 115 -117 -85 -88 -86 0
-118 -115 -117 85 88 -86 0
-118 -115 -117 -85 -88 -86 0
120 117 -85 0
120 -117 85 0
-120 117 85 0
-120 -117 -85 0
119 88 -86 0
119 -88 86 0
-119 88 86 0
-119 -88 -86 0
121 -118 120 0
121 -118 84 0
-121 118 120 0
-121 118 84 0
121 -118 83 -86 0
121 -118 -83 86 0
-121 118 83 -86 0
-121 118 -83 86 0
121 118 -120 83 86 -84 0
121 118 -120 -83 -86 -84 0
-121 -118 -120 83 86 -84 0
-121 -118 -120 -83 -86 -84 0
123 120 -83 0
123 -120 83 0
-123 120 83 0
-123 -120 -83 0
122 86 -84 0
122 -86 84 0
-122 86 84 0
-122 -86 -84 0
124 -121 123 0
124 -121 82 0
-124 121 123 0
-124 121 82 0
124 -121 81 -84 0
124 -121 -81 84 0
-124 121 81 -84 0
-124 121 -81 84 0
124 121 -123 81 84 -82 0
124 121 -123 -81 -84 -82 0
-124 -121 -123 81 84 -82 0
-124 -121 -123 -81 -84 -82 0
126 123 -81 0
126 -123 81 0
-126 123 81 0
-126 -123 -81 0
125 84 -82 0
125 -84 82 0
-125 84 82 0
-125 -84 -82 0
127 -124 126 0
127 -124 80 0
-127 124 126 0
-127 124 80 0
127 -124 79 -82 0
127 -124 -79 82 0
-127 124 79 -82 0
-127 124 -79 82 0
127 124 -126 79 82 -80 0
127 124 -126 -79 -82 -80 0
-127 -124 -126 79 82 -80 0
-127 -124 -126 -79 -82 -80 0
129 126 -79 0
129 -126 79 0
-129 126 79 0
-129 -126 -79 0
128 82 -80 0
128 -82 80 0
-128 82 80 0
-128 -82 -80 0
130 -127 129 0
130 -127 78 0
-130 127 129 0
-130 127 78 0
130 -127 77 -80 0
130 -127 -77 80 0
-130 127 77 -80 0
-130 127 -77 80 0
130 127 -129 77 80 -78 0
130 127 -129 -77 -80 -78 0
-130 -127 -129 77 80 -78 0
-130 -127 -129 -77 -80 -78 0
132 129 -77 0
132 -129 77 0
-132 129 77 0
-132 -129 -77 0
131 80 -78 0
131 -80 78 0
-131 80 78 0
-131 -80 -78 0
133 -130 132 0
133 -130 76 0
-133 130 132 0
-133 130 76 0
133 -130 75 -78 0
133 -130 -75 78 0
-133 130 75 -78 0
-133 130 -75 78 0
133 130 -132 75 78 -76 0
133 130 -132 -75 -78 -76 0
-133 -130 -132 75 78 -76 0
-133 -130 -132 -75 -78 -76 0
135 132 -75 0
135 -132 75 0
-135 132 75 0
-135 -132 -75 0
134 78 -76 0
134 -78 76 0
-134 78 76 0
-134 -78 -76 0
136 -133 135 0
136 -133 74 0
-136 133 135 0
-136 133 74 0
136 -133 73 -76 0
136 -133 -73 76 0
-136 133 73 -76 0
-136 133 -73 76 0
136 133 -135 73 76 -74 0
136 133 -135 -73 -76 -74 0
-136 -133 -135 73 76 -74 0
-136 -133 -135 -73 -76 -74 0
138 135 -73 0
138 -135 73 0
-138 135 73 0
-138 -135 -73 0
137 76 -74 0
137 -76 74 0
-137 76 74 0
-137 -76 -74 0
139 -136 138 0
139 -136 72 0
-139 136 138 0
-139 136 72 0
139 -136 71 -74 0
139 -136 -71 74 0
-139 136 71 -74 0
-139 136 -71 74 0
139 136 -138 71 74 -72 0
139 136 -138 -71 -74 -72 0
-139 -136 -138 71 74 -72 0
-139 -136 -138 -71 -74 -72 0
141 138 -71 0
141 -138 71 0
-141 138 71 0
-141 -138 -71 0
140 74 -72 0
140 -74 72 0
-140 74 72 0
-140 -74 -72 0
142 -139 141 0
142 -139 70 0
-142 139 141 0
-142 139 70 0
142 -139 69 -72 0
142 -139 -69 72 0
-142 139 69 -72 0
-142 139 -69 72 0
142 139 -141 69 72 -70 0
142 139 -141 -69 -72 -70 0
-142 -139 -141 69 72 -70 0
-142 -139 -141 -69 -72 -70 0
144 141 -69 0
144 -141 69 0
-144 141 69 0
-144 -141 -69 0
143 72 -70 0
143 -72 70 0
-143 72 70 0
-143 -72 -70 0
145 -142 144 0
145 -142 68 0
-145 142 144 0
-145 142 68 0
145 -142 67 -70 0
145 -142 -67 70 0
-145 142 67 -70 0
-145 142 -67 70 0
145 142 -144 67 70 -68 0
145 142 -144 -67 -70 -68 0
-145 -142 -144 67 70 -68 0
-145 -142 -144 -67 -70 -68 0
147 144 -67 0
147 -144 67 0
-147 144 67 0
-147 -144 -67 0
146 70 -68 0
146 -70 68 0
-146 70 68 0
-146 -70 -68 0
148 -145 147 0
148 -145 66 0
-148 145 147 0
-148 145 66 0
148 -145 65 -68 0
148 -145 -65 68 0
-148 145 65 -68 0
-148 145 -65 68 0
148 145 -147 65 68 -66 0
148 145 -147 -65 -68 -66 0
-148 -145 -147 65 68 -66 0
-148 -145 -147 -65 -68 -66 0
150 147 -65 0
150 -147 65 0
-150 147 65 0
-150 -147 -65 0
149 68 -66 0
149 -68 66 0
-149 68 66 0
-149 -68 -66 0
151 -148 150 0
151 -148 64 0
-151 148 150 0
-151 148 64 0
151 -148 63 -66 0
151 -148 -63 66 0
-151 148 63 -66 0
-151 148 -63 66 0
151 148 -150 63 66 -64 0
151 148 -150 -63 -66 -64 0
-151 -148 -150 63 66 -64 0
-151 -148 -150 -63 -66 -64 0
153 150 -63 0
153 -150 63 0
-153 150 63 0
-153 -150 -63 0
152 66 -64 0
152 -66 64 0
-152 66 64 0
-152 -66 -64 0
154 -151 153 0
154 -151 62 0
-154 151 153 0
-154 151 62 0
154 -151 61 -64 0
154 -151 -61 64 0
-154 151 61 -64 0
-154 151 -61 64 0
154 151 -153 61 64 -62 0
154 151 -153 -61 -64 -62 0
-154 -151 -153 61 64 -62 0
-154 -151 -153 -61 -64 -62 0
156 153 -61 0
156 -153 61 0
-156 153 61 0
-156 -153 -61 0
155 64 -62 0
155 -64 62 0
-155 64 62 0
-155 -64 -62 0
157 -154 156 0
157 -154 60 0
-157 154 156 0
-157 154 60 0
157 -154 59 -62 0
157 -154 -59 62 0
-157 154 59 -62 0
-157 154 -59 62 0
157 154 -156 59 62 -60 0
157 154 -156 -59 -62 -60 0
-157 -154 -156 59 62 -60 0
-157 -154 -156 -59 -62 -60 0
159 156 -59 0
159 -156 59 0
-159 156 59 0
-159 -156 -59 0
158 62 -60 0
158 -62 60 0
-158 62 60 0
-158 -62 -60 0
160 -157 159 0
160 -157 58 0
-160 157 159 0
-160 157 58 0
160 -157 57 -60 0
160 -157 -57 60 0
-160 157 57 -60 0
-160 157 -57 60 0
160 157 -159 57 60 -58 0
160 157 -159 -57 -60 -58 0
-160 -157 -159 57 60 -58 0
-160 -157 -159 -57 -60 -58 0
162 159 -57 0
162 -159 57 0
-162 159 57 0
-162 -159 -57 0
161 60 -58 0
161 -60 58 0
-161 60 58 0
-161 -60 -58 0
163 -160 162 0
163 -160 56 0
-163 160 162 0
-163 160 56 0
163 -160 55 -58 0
163 -160 -55 58 0
-163 160 55 -58 0
-163 160 -55 58 0
163 160 -162 55 58 -56 0
163 160 -162 -55 -58 -56 0
-163 -160 -162 55 58 -56 0
-163 -160 -162 -55 -58 -56 0
165 162 -55 0
165 -162 55 0
-165 162 55 0
-165 -162 -55 0
164 58 -56 0
164 -58 56 0
-164 58 56 0
-164 -58 -56 0
166 -163 165 0
166 -163 54 0
-166 163 165 0
-166 163 54 0
166 -163 53 -56 0
166 -163 -53 56 0
-166 163 53 -56 0
-166 163 -53 56 0
166 163 -165 53 56 -54 0
166 163 -165 -53 -56 -54 0
-166 -163 -165 53 56 -54 0
-166 -163 -165 -53 -56 -54 0
168 165 -53 0
168 -165 53 0
-168 165 53 0
-168 -165 -53 0
167 56 -54 0
167 -56 54 0
-167 56 54 0
-167 -56 -54 0
169 -166 168 0
169 -166 52 0
-169 166 168 0
-169 166 52 0
169 -166 51 -54 0
169 -166 -51 54 0
-169 166 51 -54 0
-169 166 -51 54 0
169 166 -168 51 54 -52 0
169 166 -168 -51 -54 -52 0
-169 -166 -168 51 54 -52 0
-169 -166 -168 -51 -54 -52 0
171 168 -51 0
171 -168 51 0
-171 168 51 0
-171 -168 -51 0
170 54 -52 0
170 -54 52 0
-170 54 52 0
-170 -54 -52 0
172 -169 171 0
172 -169 50 0
-172 169 171 0
-172 169 50 0
172 -169 49 -52 0
172 -169 -49 52 0
-172 169 49 -52 0
-172 169 -49 52 0
172 169 -171 49 52 -50 0
172 169 -171 -49 -52 -50 0
-172 -169 -171 49 52 -50 0
-172 -169 -171 -49 -52 -50 0
174 171 -49 0
174 -171 49 0
-174 171 49 0
-174 -171 -49 0
173 52 -50 0
173 -52 50 0
-173 52 50 0
-173 -52 -50 0
175 -172 174 0
175 -172 48 0
-175 172 174 0
-175 172 48 0
175 -172 47 -50 0
175 -172 -47 50 0
-175 172 47 -50 0
-175 172 -47 50 0
175 172 -174 47 50 -48 0
175 172 -174 -47 -50 -48 0
-175 -172 -174 47 50 -48 0
-175 -172 -174 -47 -50 -48 0
177 174 -47 0
177 -174 47 0
-177 174 47 0
-177 -174 -47 0
176 50 -48 0
176 -50 48 0
-176 50 48 0
-176 -50 -48 0
178 -175 177 0
178 -175 46 0
-178 175 177 0
-178 175 46 0
178 -175 45 -48 0
178 -175 -45 48 0
-178 175 45 -48 0
-178 175 -45 48 0
178 175 -177 45 48 -46 0
178 175 -177 -45 -48 -46 0
-178 -175 -177 45 48 -46 0
-178 -175 -177 -45 -48 -46 0
180 177 -45 0
180 -177 45 0
-180 177 45 0
-180 -177 -45 0
179 48 -46 0
179 -48 46 0
-179 48 46 0
-179 -48 -46 0
181 -178 180 0
181 -178 44 0
-181 178 180 0
-181 178 44 0
181 -178 43 -46 0
181 -178 -43 46 0
-181 178 43 -46 0
-181 178 -43 46 0
181 178 -180 43 46 -44 0
181 178 -180 -43 -46 -44 0
-181 -178 -180 43 46 -44 0
-181 -178 -180 -43 -46 -44 0
183 180 -43 0
183 -180 43 0
-183 180 43 0
-183 -180 -43 0
182 46 -44 0
182 -46 44 0
-182 46 44 0
-182 -46 -44 0
184 -181 183 0
184 -181 42 0
-184 181 183 0
-184 181 42 0
184 -181 41 -44 0
184 -181 -41 44 0
-184 181 41 -44 0
-184 181 -41 44 0
184 181 -183 41 44 -42 0
184 181 -183 -41 -44 -42 0
-184 -181 -183 41 44 -42 0
-184 -181 -183 -41 -44 -42 0
186 183 -41 0
186 -183 41 0
-186 183 41 0
-186 -183 -41 0
185 44 -42 0
185 -44 42 0
-185 44 42 0
-185 -44 -42 0
187 -184 186 0
187 -184 40 0
-187 184 186 0
-187 184 40 0
187 -184 39 -42 0
187 -184 -39 42 0
-187 184 39 -42 0
-187 184 -39 42 0
187 184 -186 39 42 -40 0
187 184 -186 -39 -42 -40 0
-187 -184 -186 39 42 -40 0
-187 -184 -186 -39 -42 -40 0
189 186 -39 0
189 -186 39 0
-189 186 39 0
-189 -186 -39 0
188 42 -40 0
188 -42 40 0
-188 42 40 0
-188 -42 -40 0
190 -187 189 0
190 -187 38 0
-190 187 189 0
-190 187 38 0
190 -187 37 -40 0
190 -187 -37 40 0
-190 187 37 -40 0
-190 187 -37 40 0
190 187 -189 37 40 -38 0
190 187 -189 -37 -40 -38 0
-190 -187 -189 37 40 -38 0
-190 -187 -189 -37 -40 -38 0
192 189 -37 0
192 -189 37 0
-192 189 37 0
-192 -189 -37 0
191 40 -38 0
191 -40 38 0
-191 40 38 0
-191 -40 -38 0
193 -190 192 0
193 -190 36 0
-193 190 192 0
-193 190 36 0
193 -190 35 -38 0
193 -190 -35 38 0
-193 190 35 -38 0
-193 190 -35 38 0
193 190 -192 35 38 -36 0
193 190 -192 -35 -38 -36 0
-193 -190 -192 35 38 -36 0
-193 -190 -192 -35 -38 -36 0
195 192 -35 0
195 -192 35 0
-195 192 35 0
-195 -192 -35 0
194 38 -36 0
194 -38 36 0
-194 38 36 0
-194 -38 -36 0
196 -193 195 0
196 -193 34 0
-196 193 195 0
-196 193 34 0
196 -193 33 -36 0
196 -193 -33 36 0
-196 193 33 -36 0
-196 193 -33 36 0
196 193 -195 33 36 -34 0
196 193 -195 -33 -36 -34 0
-196 -193 -195 33 36 -34 0
-196 -193 -195 -33 -36 -34 0
198 195 -33 0
198 -195 33 0
-198 195 33 0
-198 -195 -33 0
197 36 -34 0
197 -36 34 0
-197 36 34 0
-197 -36 -34 0
199 -196 198 0
199 -196 32 0
-199 196 198 0
-199 196 32 0
199 -196 31 -34 0
199 -196 -31 34 0
-199 196 31 -34 0
-199 196 -31 34 0
199 196 -198 31 34 -32 0
199 196 -198 -31 -34 -32 0
-199 -196 -198 31 34 -32 0
-199 -196 -198 -31 -34 -32 0
201 198 -31 0
201 -198 31 0
-201 198 31 0
-201 -198 -31 0
200 34 -32 0
200 -34 32 0
-200 34 32 0
-200 -34 -32 0
202 -199 201 0
202 -199 30 0
-202 199 201 0
-202 199 30 0
202 -199 29 -32 0
202 -199 -29 32 0
-202 199 29 -32 0
-202 199 -29 32 0
202 199 -201 29 32 -30 0
202 199 -201 -29 -32 -30 0
-202 -199 -201 29 32 -30 0
-202 -199 -201 -29 -32 -30 0
204 201 -29 0
204 -201 29 0
-204 201 29 0
-204 -201 -29 0
203 32 -30 0
203 -32 30 0
-203 32 30 0
-203 -32 -30 0
205 -202 204 0
205 -202 28 0
-205 202 204 0
-205 202 28 0
205 -202 27 -30 0
205 -202 -27 30 0
-205 202 27 -30 0
-205 202 -27 30 0
205 202 -204 27 30 -28 0
205 202 -204 -27 -30 -28 0
-205 -202 -204 27 30 -28 0
-205 -202 -204 -27 -30 -28 0
207 204 -27 0
207 -204 27 0
-207 204 27 0
-207 -204 -27 0
206 30 -28 0
206 -30 28 0
-206 30 28 0
-206 -30 -28 0
208 -205 207 0
208 -205 26 0
-208 205 207 0
-208 205 26 0
208 -205 25 -28 0
208 -205 -25 28 0
-208 205 25 -28 0
-208 205 -25 28 0
208 205 -207 25 28 -26 0
208 205 -207 -25 -28 -26 0
-208 -205 -207 25 28 -26 0
-208 -205 -207 -25 -28 -26 0
210 207 -25 0
210 -207 25 0
-210 207 25 0
-210 -207 -25 0
209 28 -26 0
209 -28 26 0
-209 28 26 0
-209 -28 -26 0
211 -208 210 0
211 -208 24 0
-211 208 210 0
-211 208 24 0
211 -208 23 -26 0
211 -208 -23 26 0
-211 208 23 -26 0
-211 208 -23 26 0
211 208 -210 23 26 -24 0
211 208 -210 -23 -26 -24 0
-211 -208 -210 23 26 -24 0
-211 -208 -210 -23 -26 -24 0
213 210 -23 0
213 -210 23 0
-213 210 23 0
-213 -210 -23 0
212 26 -24 0
212 -26 24 0
-212 26 24 0
-212 -26 -24 0
214 -211 213 0
214 -211 22 0
-214 211 213 0
-214 211 22 0
214 -211 21 -24 0
214 -211 -21 24 0
-214 211 21 -24 0
-214 211 -21 24 0
214 211 -213 21 24 -22 0
214 211 -213 -21 -24 -22 0
-214 -211 -213 21 24 -22 0
-214 -211 -213 -21 -24 -22 0
216 213 -21 0
216 -213 21 0
-216 213 21 0
-216 -213 -21 0
215 24 -22 0
215 -24 22 0
-215 24 22 0
-215 -24 -22 0
217 -214 216 0
217 -214 20 0
-217 214 216 0
-217 214 20 0
217 -214 19 -22 0
217 -214 -19 22 0
-217 214 19 -22 0
-217 214 -19 22 0
217 214 -216 19 22 -20 0
217 214 -216 -19 -22 -20 0
-217 -214 -216 19 22 -20 0
-217 -214 -216 -19 -22 -20 0
219 216 -19 0
219 -216 19 0
-219 216 19 0
-219 -216 -19 0
218 22 -20 0
218 -22 20 0
-218 22 20 0
-218 -22 -20 0
220 -217 219 0
220 -217 18 0
-220 217 219 0
-220 217 18 0
220 -217 17 -20 0
220 -217 -17 20 0
-220 217 17 -20 0
-220 217 -17 20 0
220 217 -219 17 20 -18 0
220 217 -219 -17 -20 -18 0
-220 -217 -219 17 20 -18 0
-220 -217 -219 -17 -20 -18 0
222 219 -17 0
222 -219 17 0
-222 219 17 0
-222 -219 -17 0
221 20 -18 0
221 -20 18 0
-221 20 18 0
-221 -20 -18 0
223 -220 222 0
223 -220 16 0
-223 220 222 0
-223 220 16 0
223 -220 15 -18 0
223 -220 -15 18 0
-223 220 15 -18 0
-223 220 -15 18 0
223 220 -222 15 18 -16 0
223 220 -222 -15 -18 -16 0
-223 -220 -222 15 18 -16 0
-223 -220 -222 -15 -18 -16 0
225 222 -15 0
225 -222 15 0
-225 222 15 0
-225 -222 -15 0
224 18 -16 0
224 -18 16 0
-224 18 16 0
-224 -18 -16 0
226 -223 225 0
226 -223 14 0
-226 223 225 0
-226 223 14 0
226 -223 13 -16 0
226 -223 -13 16 0
-226 223 13 -16 0
-226 223 -13 16 0
226 223 -225 13 16 -14 0
226 223 -225 -13 -16 -14 0
-226 -223 -225 13 16 -14 0
-226 -223 -225 -13 -16 -14 0
228 225 -13 0
228 -225 13 0
-228 225 13 0
-228 -225 -13 0
227 16 -14 0
227 -16 14 0
-227 16 14 0
-227 -16 -14 0
229 -226 228 0
229 -226 12 0
-229 226 228 0
-229 226 12 0
229 -226 11 -14 0
229 -226 -11 14 0
-229 226 11 -14 0
-229 226 -11 14 0
229 226 -228 11 14 -12 0
229 226 -228 -11 -14 -12 0
-229 -226 -228 11 14 -12 0
-229 -226 -228 -11 -14 -12 0
231 228 -11 0
231 -228 11 0
-231 228 11 0
-231 -228 -11 0
230 14 -12 0
230 -14 12 0
-230 14 12 0
-230 -14 -12 0
232 -229 231 0
232 -229 10 0
-232 229 231 0
-232 229 10 0
232 -229 9 -12 0
232 -229 -9 12 0
-232 229 9 -12 0
-232 229 -9 12 0
232 229 -231 9 12 -10 0
232 229 -231 -9 -12 -10 0
-232 -229 -231 9 12 -10 0
-232 -229 -231 -9 -12 -10 0
234 231 -9 0
234 -231 9 0
-234 231 9 0
-234 -231 -9 0
233 12 -10 0
233 -12 10 0
-233 12 10 0
-233 -12 -10 0
235 -232 234 0
235 -232 8 0
-235 232 234 0
-235 232 8 0
235 -232 7 -10 0
235 -232 -7 10 0
-235 232 7 -10 0
-235 232 -7 10 0
235 232 -234 7 10 -8 0
235 232 -234 -7 -10 -8 0
-235 -232 -234 7 10 -8 0
-235 -232 -234 -7 -10 -8 0
237 234 -7 0
237 -234 7 0
-237 234 7 0
-237 -234 -7 0
236 10 -8 0
236 -10 8 0
-236 10 8 0
-236 -10 -8 0
238 -235 237 0
238 -235 6 0
-238 235 237 0
-238 235 6 0
238 -235 5 -8 0
238 -235 -5 8 0
-238 235 5 -8 0
-238 235 -5 8 0
238 235 -237 5 8 -6 0
238 235 -237 -5 -8 -6 0
-238 -235 -237 5 8 -6 0
-238 -235 -237 -5 -8 -6 0
240 237 -5 0
240 -237 5 0
-240 237 5 0
-240 -237 -5 0
239 8 -6 0
239 -8 6 0
-239 8 6 0
-239 -8 -6 0
241 -238 240 0
241 -238 4 0
-241 238 240 0
-241 238 4 0
241 -238 3 -6 0
241 -238 -3 6 0
-241 238 3 -6 0
-241 238 -3 6 0
241 238 -240 3 6 -4 0
241 238 -240 -3 -6 -4 0
-241 -238 -240 3 6 -4 0
-241 -238 -240 -3 -6 -4 0
243 240 -3 0
243 -240 3 0
-243 240 3 0
-243 -240 -3 0
242 6 -4 0
242 -6 4 0
-242 6 4 0
-242 -6 -4 0
244 -241 243 0
244 -241 2 0
-244 241 243 0
-244 241 2 0
244 -241 1 -4 0
244 -241 -1 4 0
-244 241 1 -4 0
-244 241 -1 4 0
244 241 -243 1 4 -2 0
244 241 -243 -1 -4 -2 0
-244 -241 -243 1 4 -2 0
-244 -241 -243 -1 -4 -2 0
246 243 -1 0
246 -243 1 0
-246 243 1 0
-246 -243 -1 0
245 4 -2 0
245 -4 2 0
-245 4 2 0
-245 -4 -2 0
-246 0
-243 0
-245 0
-240 0
-242 0
-237 0
-239 0
-234 0
-236 0
-231 0
-233 0
-228 0
-230 0
-225 0
-227 0
-222 0
-224 0
-219 0
-221 0
-216 0
-218 0
-213 0
-215 0
-210 0
-212 0
-207 0
-209 0
-204 0
-206 0
-201 0
-203 0
-198 0
-200 0
-195 0
-197 0
-192 0
-194 0
-189 0
-191 0
-186 0
-188 0
-183 0
-185 0
-180 0
-182 0
-177 0
-179 0
-174 0
-176 0
-171 0
-173 0
-168 0
-170 0
-165 0
-167 0
-162 0
-164 0
-159 0
-161 0
-156 0
-158 0
-153 0
-155 0
-150 0
-152 0
-147 0
-149 0
-144 0
-146 0
-141 0
-143 0
-138 0
-140 0
-135 0
-137 0
-132 0
-134 0
-129 0
-131 0
-126 0
-128 0
-123 0
-125 0
-120 0
-122 0
-117 0
-119 0
-114 0
-116 0
-111 0
-113 0
-108 0
-110 0
-101 0
-107 0
